experiments/sat_smt/run/sat-r+/results/jessica_amelia.res
solved=true
solvingTime=167.29986572265625
nActions=16