experiments/sat_smt/run/sat-r+/results/jessica_amelia.out
Timesteps: 1
s UNSATISFIABLE
real 0.16
user 0.02
sys 0.00
Timesteps: 2
s UNSATISFIABLE
real 0.21
user 0.05
sys 0.00
Timesteps: 3
s UNSATISFIABLE
real 0.27
user 0.10
sys 0.01
Timesteps: 4
s UNSATISFIABLE
real 0.69
user 0.39
sys 0.01
Timesteps: 5
s UNSATISFIABLE
real 1.12
user 0.80
sys 0.01
Timesteps: 6
s UNSATISFIABLE
real 1.01
user 0.82
sys 0.01
Timesteps: 7
s UNSATISFIABLE
real 2.37
user 1.90
sys 0.03
Timesteps: 8
s UNSATISFIABLE
real 2.32
user 2.08
sys 0.02
Timesteps: 9
s UNSATISFIABLE
real 3.61
user 3.33
sys 0.02
Timesteps: 10
s UNSATISFIABLE
real 14.24
user 13.46
sys 0.05
Timesteps: 11
s UNSATISFIABLE
real 18.14
user 17.23
sys 0.06
Timesteps: 12
s UNSATISFIABLE
real 19.74
user 18.76
sys 0.06
Timesteps: 13
s UNSATISFIABLE
real 29.49
user 28.44
sys 0.07
Timesteps: 14
s UNSATISFIABLE
real 24.67
user 23.58
sys 0.07
Timesteps: 15
s UNSATISFIABLE
real 26.77
user 25.62
sys 0.09
Timesteps: 16
s SATISFIABLE
real 26.75
user 25.55
sys 0.08
